30
20
5
6
7
8
9
10
35
34
40
41
60
59
58
57
55
56
51
50
49
52
53
54
42
43
28
33
32
31
19
4
3
21
24
46
45
44
48
47
69
68
70
67
66
65
71
72
73
64
63
62
61
39
38
36
37
18
17
11
12
16
15
13
14
74
75
76
2
1
23
22
25
26
27
29
30
